
Gurobi 12.0.2 (win64) logging started Sun Jun  8 11:32:34 2025

Set parameter LogFile to value "C:\Ioana\_uni\honours\slp\algorithm\Main_files\results\others\prox_tubules_new_model\Task_004_Sample001_irr_gurobi.log"
Gurobi Optimizer version 12.0.2 build v12.0.2rc0 (win64 - Windows 11.0 (26100.2))

CPU model: Intel(R) Core(TM) Ultra 5 125H, instruction set [SSE2|AVX|AVX2]
Thread count: 14 physical cores, 18 logical processors, using up to 18 threads

Non-default parameters:
TimeLimit  2200

Optimize a model with 47226 rows, 34499 columns and 146686 nonzeros
Model fingerprint: 0xd26e0442
Variable types: 17254 continuous, 17245 integer (17245 binary)
Coefficient statistics:
  Matrix range     [1e-04, 8e+04]
  Objective range  [1e-04, 1e+01]
  Bounds range     [1e+00, 1e+03]
  RHS range        [1e+00, 1e+00]
Presolve removed 30815 rows and 21541 columns
Presolve time: 0.33s
Presolved: 16411 rows, 12958 columns, 54603 nonzeros
Variable types: 6412 continuous, 6546 integer (6546 binary)

Root relaxation: objective 1.667595e-01, 568 iterations, 0.02 seconds (0.04 work units)

    Nodes    |    Current Node    |     Objective Bounds      |     Work
 Expl Unexpl |  Obj  Depth IntInf | Incumbent    BestBd   Gap | It/Node Time

     0     0    0.16676    0   10          -    0.16676      -     -    0s
H    0     0                       0.2347364    0.16676  29.0%     -    0s
H    0     0                       0.2313807    0.16676  27.9%     -    0s
     0     0    0.20935    0   12    0.23138    0.20935  9.52%     -    0s

Explored 1 nodes (1153 simplex iterations) in 0.65 seconds (0.67 work units)
Thread count was 18 (of 18 available processors)

Solution count 2: 0.231381 0.234736 

Optimal solution found (tolerance 1.00e-04)
Best objective 2.313806526720e-01, best bound 2.313806526720e-01, gap 0.0000%
